; benchmark generated from python API
(set-info :status unknown)
(declare-fun x_epoch () Int)
(declare-fun y_epoch () Int)
(declare-fun x_shift_period_687623_epoch () Int)
(declare-fun x_year () Int)
(declare-fun x_month () Int)
(declare-fun x_day () Int)
(declare-fun x_shift_period_687623_year () Int)
(declare-fun x_shift_period_687623_month () Int)
(declare-fun x_shift_period_687623_day () Int)
(assert
 (>= x_epoch (- 36584)))
(assert
 (<= x_epoch 36829))
(assert
 (>= y_epoch (- 36584)))
(assert
 (<= y_epoch 36829))
(assert
 (= x_epoch 7990))
(assert
 (>= x_shift_period_687623_epoch (- 36584)))
(assert
 (<= x_shift_period_687623_epoch 36829))
(assert
 (let (($x196 (<= x_year 2100)))
 (let (($x635 (>= x_year 1900)))
 (let (($x3375 (= x_month 11)))
 (let (($x550 (= x_month 9)))
 (let (($x315 (= x_month 6)))
 (let (($x340 (= x_month 4)))
 (let ((?x358 (ite (or $x340 $x315 $x550 $x3375) 30 31)))
 (let (($x3127 (= (mod x_year 4) 0)))
 (let (($x600 (= (mod x_year 100) 0)))
 (let (($x146 (= (mod x_year 400) 0)))
 (let (($x2897 (ite $x146 true (ite $x600 false $x3127))))
 (let (($x560 (= x_month 2)))
 (let ((?x3309 (ite $x560 (ite $x2897 29 28) ?x358)))
 (let (($x3358 (>= x_day 1)))
 (let (($x787 (<= x_month 12)))
 (let (($x164 (>= x_month 1)))
 (and $x164 $x787 $x3358 (<= x_day ?x3309) $x635 $x196))))))))))))))))))
(assert
 (let (($x29 (or (and (= (mod 2000 4) 0) (and (distinct (mod 2000 100) 0) true)) (= (mod 2000 400) 0))))
 (let ((?x36 (ite (= 3 2) (ite $x29 31 31) (ite (= 3 1) (ite $x29 0 0) 0))))
 (let ((?x40 (ite $x29 60 59)))
 (let ((?x41 (ite (= 3 3) ?x40 ?x36)))
 (let ((?x46 (ite (= 3 4) (ite $x29 91 90) ?x41)))
 (let ((?x52 (ite (= 3 5) (ite $x29 121 120) ?x46)))
 (let ((?x58 (ite (= 3 6) (ite $x29 152 151) ?x52)))
 (let ((?x64 (ite (= 3 7) (ite $x29 182 181) ?x58)))
 (let ((?x70 (ite (= 3 8) (ite $x29 213 212) ?x64)))
 (let ((?x76 (ite (= 3 9) (ite $x29 244 243) ?x70)))
 (let ((?x82 (ite (= 3 10) (ite $x29 274 273) ?x76)))
 (let ((?x88 (ite (= 3 11) (ite $x29 305 304) ?x82)))
 (let ((?x16 (- (+ (* 365 (- 2000 1)) (div (- 2000 1) 4)) (div (- 2000 1) 100))))
 (let ((?x95 (+ (+ ?x16 (div (- 2000 1) 400)) (ite (= 3 12) (ite $x29 335 334) ?x88))))
 (let ((?x97 (+ ?x95 (- 1 1))))
 (let (($x3127 (= (mod x_year 4) 0)))
 (let (($x600 (= (mod x_year 100) 0)))
 (let (($x146 (= (mod x_year 400) 0)))
 (let (($x2897 (ite $x146 true (ite $x600 false $x3127))))
 (let (($x675 (= 2 x_month)))
 (let ((?x373 (ite $x675 (ite $x2897 31 31) (ite (= 1 x_month) (ite $x2897 0 0) 0))))
 (let (($x764 (= 3 x_month)))
 (let (($x463 (= 4 x_month)))
 (let ((?x670 (ite $x463 (ite $x2897 91 90) (ite $x764 (ite $x2897 60 59) ?x373))))
 (let (($x2211 (= 5 x_month)))
 (let (($x691 (= 6 x_month)))
 (let ((?x431 (ite $x691 (ite $x2897 152 151) (ite $x2211 (ite $x2897 121 120) ?x670))))
 (let (($x838 (= 7 x_month)))
 (let (($x539 (= 8 x_month)))
 (let ((?x2935 (ite $x539 (ite $x2897 213 212) (ite $x838 (ite $x2897 182 181) ?x431))))
 (let (($x909 (= 9 x_month)))
 (let (($x472 (= 10 x_month)))
 (let ((?x535 (ite $x472 (ite $x2897 274 273) (ite $x909 (ite $x2897 244 243) ?x2935))))
 (let (($x546 (= 11 x_month)))
 (let (($x3334 (= 12 x_month)))
 (let ((?x140 (ite $x3334 (ite $x2897 335 334) (ite $x546 (ite $x2897 305 304) ?x535))))
 (let ((?x806 (- (+ (* 365 (- x_year 1)) (div (- x_year 1) 4)) (div (- x_year 1) 100))))
 (let ((?x3942 (+ (+ (+ ?x806 (div (- x_year 1) 400)) ?x140) (- x_day 1))))
 (= x_epoch (- ?x3942 ?x97)))))))))))))))))))))))))))))))))))))))))
(assert
 (let (($x3999 (<= x_shift_period_687623_year 2100)))
 (let (($x3996 (>= x_shift_period_687623_year 1900)))
 (let (($x1648 (= x_shift_period_687623_month 11)))
 (let (($x1286 (= x_shift_period_687623_month 9)))
 (let (($x212 (= x_shift_period_687623_month 6)))
 (let (($x2118 (= x_shift_period_687623_month 4)))
 (let ((?x2226 (ite (or $x2118 $x212 $x1286 $x1648) 30 31)))
 (let (($x4007 (= (mod x_shift_period_687623_year 4) 0)))
 (let (($x2012 (= (mod x_shift_period_687623_year 100) 0)))
 (let (($x3621 (= (mod x_shift_period_687623_year 400) 0)))
 (let (($x4006 (ite $x3621 true (ite $x2012 false $x4007))))
 (let (($x4025 (= x_shift_period_687623_month 2)))
 (let (($x4024 (>= x_shift_period_687623_day 1)))
 (let (($x4023 (<= x_shift_period_687623_month 12)))
 (let (($x4022 (>= x_shift_period_687623_month 1)))
 (and $x4022 $x4023 $x4024 (<= x_shift_period_687623_day (ite $x4025 (ite $x4006 29 28) ?x2226)) $x3996 $x3999)))))))))))))))))
(assert
 (let (($x29 (or (and (= (mod 2000 4) 0) (and (distinct (mod 2000 100) 0) true)) (= (mod 2000 400) 0))))
 (let ((?x36 (ite (= 3 2) (ite $x29 31 31) (ite (= 3 1) (ite $x29 0 0) 0))))
 (let ((?x40 (ite $x29 60 59)))
 (let ((?x41 (ite (= 3 3) ?x40 ?x36)))
 (let ((?x46 (ite (= 3 4) (ite $x29 91 90) ?x41)))
 (let ((?x52 (ite (= 3 5) (ite $x29 121 120) ?x46)))
 (let ((?x58 (ite (= 3 6) (ite $x29 152 151) ?x52)))
 (let ((?x64 (ite (= 3 7) (ite $x29 182 181) ?x58)))
 (let ((?x70 (ite (= 3 8) (ite $x29 213 212) ?x64)))
 (let ((?x76 (ite (= 3 9) (ite $x29 244 243) ?x70)))
 (let ((?x82 (ite (= 3 10) (ite $x29 274 273) ?x76)))
 (let ((?x88 (ite (= 3 11) (ite $x29 305 304) ?x82)))
 (let ((?x16 (- (+ (* 365 (- 2000 1)) (div (- 2000 1) 4)) (div (- 2000 1) 100))))
 (let ((?x95 (+ (+ ?x16 (div (- 2000 1) 400)) (ite (= 3 12) (ite $x29 335 334) ?x88))))
 (let ((?x97 (+ ?x95 (- 1 1))))
 (let (($x4007 (= (mod x_shift_period_687623_year 4) 0)))
 (let (($x2012 (= (mod x_shift_period_687623_year 100) 0)))
 (let (($x3621 (= (mod x_shift_period_687623_year 400) 0)))
 (let (($x4006 (ite $x3621 true (ite $x2012 false $x4007))))
 (let ((?x2746 (ite (= 1 x_shift_period_687623_month) (ite $x4006 0 0) 0)))
 (let ((?x2532 (ite (= 3 x_shift_period_687623_month) (ite $x4006 60 59) (ite (= 2 x_shift_period_687623_month) (ite $x4006 31 31) ?x2746))))
 (let ((?x3861 (ite (= 5 x_shift_period_687623_month) (ite $x4006 121 120) (ite (= 4 x_shift_period_687623_month) (ite $x4006 91 90) ?x2532))))
 (let ((?x3984 (ite (= 7 x_shift_period_687623_month) (ite $x4006 182 181) (ite (= 6 x_shift_period_687623_month) (ite $x4006 152 151) ?x3861))))
 (let ((?x4128 (ite (= 9 x_shift_period_687623_month) (ite $x4006 244 243) (ite (= 8 x_shift_period_687623_month) (ite $x4006 213 212) ?x3984))))
 (let ((?x2550 (ite (= 11 x_shift_period_687623_month) (ite $x4006 305 304) (ite (= 10 x_shift_period_687623_month) (ite $x4006 274 273) ?x4128))))
 (let ((?x3583 (+ (* 365 (- x_shift_period_687623_year 1)) (div (- x_shift_period_687623_year 1) 4))))
 (let ((?x2140 (+ (- ?x3583 (div (- x_shift_period_687623_year 1) 100)) (div (- x_shift_period_687623_year 1) 400))))
 (let ((?x2187 (+ ?x2140 (ite (= 12 x_shift_period_687623_month) (ite $x4006 335 334) ?x2550))))
 (= x_shift_period_687623_epoch (- (+ ?x2187 (- x_shift_period_687623_day 1)) ?x97)))))))))))))))))))))))))))))))
(assert
 (let ((?x3841 (+ (mod (+ (+ (* 12 x_year) (- x_month 1)) 13) 12) 1)))
 (let (($x2107 (= ?x3841 11)))
 (let (($x3245 (= ?x3841 9)))
 (let (($x705 (= ?x3841 6)))
 (let (($x3659 (= ?x3841 4)))
 (let ((?x492 (* 12 x_year)))
 (let ((?x478 (+ ?x492 (- x_month 1))))
 (let ((?x1742 (+ ?x478 13)))
 (let ((?x2418 (div ?x1742 12)))
 (let (($x2142 (ite (= (mod ?x2418 400) 0) true (ite (= (mod ?x2418 100) 0) false (= (mod ?x2418 4) 0)))))
 (let (($x3556 (= ?x3841 2)))
 (let ((?x1525 (ite $x3556 (ite $x2142 29 28) (ite (or $x3659 $x705 $x3245 $x2107) 30 31))))
 (let ((?x4118 (ite (<= x_day ?x1525) x_day ?x1525)))
 (let (($x3375 (= x_month 11)))
 (let (($x550 (= x_month 9)))
 (let (($x315 (= x_month 6)))
 (let (($x340 (= x_month 4)))
 (let ((?x358 (ite (or $x340 $x315 $x550 $x3375) 30 31)))
 (let (($x3127 (= (mod x_year 4) 0)))
 (let (($x600 (= (mod x_year 100) 0)))
 (let (($x146 (= (mod x_year 400) 0)))
 (let (($x2897 (ite $x146 true (ite $x600 false $x3127))))
 (let (($x560 (= x_month 2)))
 (let ((?x3309 (ite $x560 (ite $x2897 29 28) ?x358)))
 (let (($x286 (= x_day ?x3309)))
 (let ((?x1427 (ite (= ?x3841 8) 212 (ite $x3245 243 (ite (= ?x3841 10) 273 (ite $x2107 304 334))))))
 (let ((?x2552 (ite (= ?x3841 5) 120 (ite $x705 151 (ite (= ?x3841 7) 181 ?x1427)))))
 (let ((?x4114 (ite (= ?x3841 1) 0 (ite $x3556 31 (ite (= ?x3841 3) 59 (ite $x3659 90 ?x2552))))))
 (let ((?x2250 (- (+ (* 365 (- ?x2418 1)) (div (- ?x2418 1) 4)) (div (- ?x2418 1) 100))))
 (let ((?x251 (+ (+ ?x2250 (div (- ?x2418 1) 400)) (+ ?x4114 (ite (and $x2142 (> ?x3841 2)) 1 0)))))
 (= x_shift_period_687623_epoch (+ (+ ?x251 (- (ite false (ite $x286 ?x1525 ?x4118) ?x4118) 1)) 40)))))))))))))))))))))))))))))))))
(assert
 (= y_epoch x_shift_period_687623_epoch))
(assert
 (not (= y_epoch 8395)))
(check-sat)
